\* Problem: Unknown *\

Maximize
 obj: + xp_0_0 + xp_1_0 + xp_1_1 + xp_2_0 + xp_2_1 + xp_3_0 + xp_3_1
 + xp_3_2 + xp_4_0 + xp_5_0 + xp_6_0 + xp_7_0 + xp_8_0 + xp_9_0 + xp_9_1
 + xp_10_0 + xp_11_0 + xp_11_1 + xp_12_0 + xp_12_1 + xp_13_0 + xp_13_1
 + xp_13_2 + xp_14_0 + xp_14_1 + xp_15_0 + xp_16_0 + xp_17_0 + xp_17_1
 + xp_18_0 + xp_18_1 + xp_18_2 + xp_18_3 + xp_18_4 + xp_18_5 + xp_19_0
 + xp_19_1 + xp_20_0 + xp_21_0 + xp_22_0 + xp_22_1 + xp_23_0 + xp_24_0
 + xp_24_1 + xp_24_2 + xp_24_3 + xp_24_4 + xp_25_0 + xp_26_0 + xp_26_1
 + xp_26_2 + xp_26_3 + xp_27_0 + xp_27_1 + xp_28_0 + xp_28_1 + xp_29_0
 + xp_30_0 + xp_30_1 + xp_30_2 + xp_31_0 + xp_32_0 + xp_32_1 + xp_32_2
 + xp_33_0 + xp_34_0 + xp_34_1 + xp_35_0 + xp_36_0 + xp_37_0 + xp_38_0
 + xp_38_1 + xp_39_0 + xp_40_0 + xp_40_1 + xp_40_2 + xp_41_0 + xp_41_1
 + xp_42_0 + xp_42_1 + xp_42_2 + xp_43_0 + xp_44_0 + xp_44_1 + xp_45_0
 + xp_45_1 + xp_45_2 + xp_45_3 + xp_46_0 + xp_47_0 + xp_48_0 + xp_48_1
 + xp_49_0 + xp_50_0 + xp_50_1 + xp_51_0 + xp_52_0 + xp_53_0 + xp_53_1
 + xp_53_2 + xp_54_0 + xp_55_0 + xp_56_0 + xp_57_0 + xp_57_1 + xp_58_0
 + xp_58_1 + xp_59_0 + xp_60_0 + xp_60_1 + xp_61_0 + xp_61_1 + xp_62_0
 + xp_63_0 + xp_63_1 + xp_64_0 + xp_65_0 + xp_65_1 + xp_66_0 + xp_67_0
 + xp_67_1 + xp_68_0 + xp_68_1 + xp_68_2 + xp_69_0 + xp_70_0 + xp_71_0
 + xp_72_0 + xp_73_0 + xp_74_0 + xp_74_1 + xp_75_0 + xp_75_1 + xp_76_0
 + xp_77_0 + xp_77_1 + xp_77_2 + xp_78_0 + xp_78_1 + xp_78_2 + xp_78_3
 + xp_79_0 + xp_79_1 + xp_80_0 + xp_80_1 + xp_81_0 + xp_81_1 + xp_81_2
 + xp_81_3 + xp_81_4 + xp_82_0 + xp_82_1 + xp_82_2 + xp_82_3 + xp_83_0
 + xp_83_1 + xp_84_0 + xp_85_0 + xp_85_1 + xp_85_2 + xp_86_0 + xp_86_1
 + xp_87_0 + xp_88_0 + xp_88_1 + xp_89_0 + xp_90_0 + xp_90_1 + xp_90_2
 + xp_91_0 + xp_91_1 + xp_91_2 + xp_92_0 + xp_92_1 + xp_92_2 + xp_93_0
 + xp_94_0 + xp_94_1 + xp_94_2 + xp_94_3 + xp_94_4 + xp_95_0 + xp_95_1
 + xp_95_2 + xp_96_0 + xp_96_1 + xp_97_0 + xp_98_0 + xp_98_1 + xp_98_2
 + xp_98_3 + xp_99_0 + xp_99_1 + xp_99_2 + xp_100_0 + xp_101_0
 + xp_102_0 + xp_103_0 + xp_104_0 + xp_104_1 + xp_105_0 + xp_105_1
 + xp_106_0 + xp_106_1 + xp_106_2 + xp_107_0 + xp_108_0 + xp_108_1
 + xp_108_2 + xp_109_0 + xp_109_1 + xp_110_0 + xp_111_0 + xp_111_1
 + xp_112_0 + xp_112_1 + xp_112_2 + xp_113_0 + xp_114_0 + xp_115_0
 + xp_115_1 + xp_116_0 + xp_116_1 + xp_117_0 + xp_118_0 + xp_119_0
 + xp_119_1 + xp_119_2 + xp_119_3 + xp_120_0 + xp_120_1 + xp_121_0
 + xp_122_0 + xp_123_0 + xp_123_1 + xp_124_0 + xp_124_1 + xp_124_2
 + xp_125_0 + xp_125_1 + xp_126_0 + xp_126_1 + xp_126_2 + xp_126_3
 + xp_126_4 + xp_127_0 + xp_127_1 + xp_128_0 + xp_128_1 + xp_128_2
 + xp_129_0 + xp_129_1 + xp_130_0 + xp_131_0 + xp_131_1 + xp_131_2
 + xp_131_3

Subject To
 r_1: + xp_128_2 + xp_128_1 + xp_123_1 + xp_122_0 + xp_121_0 + xp_108_2
 + xp_107_0 + xp_78_3 + xp_67_1 + xp_57_1 + xp_40_2 + xp_40_1 + xp_25_0
 + xp_22_1 + xp_18_5 + xp_18_4 + xp_18_2 + xp_18_1 + xp_16_0 + xp_13_2
 + xp_13_1 + xp_4_0 <= 37964.8842777334
 r_2: + xp_131_2 + xp_131_1 + xp_127_1 + xp_126_4 + xp_126_1 + xp_120_1
 + xp_120_0 + xp_94_4 + xp_94_3 + xp_94_1 + xp_93_0 + xp_90_1 + xp_85_2
 + xp_85_1 + xp_85_0 + xp_77_2 + xp_77_1 + xp_75_1 + xp_75_0 + xp_74_1
 + xp_71_0 + xp_66_0 + xp_65_1 + xp_65_0 + xp_61_1 + xp_55_0 + xp_52_0
 + xp_48_1 + xp_48_0 + xp_42_2 + xp_42_1 + xp_38_1 + xp_32_2 + xp_32_0
 + xp_28_1 + xp_28_0 + xp_24_4 + xp_24_3 + xp_24_2 + xp_24_0 + xp_19_1
 + xp_19_0 + xp_12_1 + xp_1_1 <= 34449.1913335368
 r_3: + xp_126_3 + xp_124_1 + xp_114_0 + xp_106_2 + xp_105_1 + xp_98_3
 + xp_95_1 + xp_94_2 + xp_92_2 + xp_91_2 + xp_85_2 + xp_83_1 + xp_76_0
 + xp_68_2 + xp_48_1 + xp_41_1 + xp_34_0 + xp_30_2 + xp_26_2 + xp_24_3
 <= 35958.6563307494
 r_4: + xp_119_3 + xp_119_2 + xp_117_0 + xp_112_2 + xp_111_1 + xp_104_1
 + xp_95_2 + xp_95_0 + xp_91_1 + xp_91_0 + xp_88_1 + xp_84_0 + xp_82_3
 + xp_82_2 + xp_81_4 + xp_81_3 + xp_79_1 + xp_79_0 + xp_53_2 + xp_46_0
 + xp_45_3 + xp_44_1 + xp_43_0 + xp_40_2 + xp_40_1 + xp_40_0 + xp_34_1
 + xp_27_1 + xp_18_4 + xp_18_3 + xp_3_2 <= 34931.0473350727
 r_5: + xp_130_0 + xp_119_3 + xp_119_2 + xp_112_2 + xp_111_1 + xp_104_1
 + xp_99_0 + xp_88_1 + xp_82_3 + xp_82_2 + xp_81_4 + xp_81_3 + xp_53_2
 + xp_45_3 + xp_44_1 + xp_27_1 + xp_18_4 + xp_18_3 + xp_7_0 + xp_3_2
 + xp_2_0 <= 35958.6563307494
 r_6: + xp_126_4 + xp_126_3 + xp_126_2 + xp_119_0 + xp_114_0 + xp_95_1
 + xp_92_2 + xp_92_1 + xp_91_2 + xp_83_1 + xp_83_0 + xp_82_1 + xp_81_0
 + xp_70_0 + xp_68_2 + xp_68_1 + xp_58_1 + xp_53_0 + xp_48_1 + xp_45_0
 + xp_34_0 + xp_32_2 + xp_32_1 + xp_30_2 + xp_30_1 + xp_18_1
 <= 38281.3816343724
 r_7: + xp_119_1 + xp_112_1 + xp_104_0 + xp_88_0 + xp_82_0 + xp_81_2
 + xp_81_1 + xp_78_2 + xp_53_1 + xp_50_1 + xp_45_2 + xp_45_1 + xp_44_0
 + xp_27_0 + xp_18_5 + xp_18_2 + xp_18_0 + xp_3_1 <= 34931.0473350727
 r_8: + xp_131_2 + xp_131_1 + xp_127_1 + xp_126_4 + xp_126_1 + xp_120_1
 + xp_120_0 + xp_118_0 + xp_103_0 + xp_94_4 + xp_94_3 + xp_94_1
 + xp_90_1 + xp_77_2 + xp_77_1 + xp_74_1 + xp_71_0 + xp_61_1 + xp_55_0
 + xp_42_2 + xp_42_1 + xp_38_1 + xp_32_2 + xp_32_0 + xp_24_4 + xp_24_3
 + xp_24_2 + xp_24_0 + xp_12_1 + xp_1_1 <= 37964.8842777334
 r_9: + xp_131_3 + xp_131_0 + xp_127_0 + xp_123_1 + xp_122_0 + xp_108_2
 + xp_78_3 + xp_77_0 + xp_67_1 + xp_57_1 + xp_42_0 + xp_33_0 + xp_32_1
 + xp_24_1 <= 38895.0789229341
 r_10: + xp_112_2 + xp_112_1 + xp_111_1 + xp_106_0 + xp_99_0 + xp_98_0
 + xp_94_1 + xp_88_1 + xp_88_0 + xp_85_0 + xp_78_2 + xp_50_1 + xp_26_0
 + xp_24_0 + xp_8_0 + xp_7_0 + xp_3_2 + xp_3_1 + xp_2_0
 <= 38281.3816343724
 r_11: + xp_119_0 + xp_112_0 + xp_111_0 + xp_95_1 + xp_91_2 + xp_82_1
 + xp_81_0 + xp_78_3 + xp_78_1 + xp_78_0 + xp_59_0 + xp_53_0 + xp_50_0
 + xp_49_0 + xp_45_0 + xp_34_0 + xp_18_1 + xp_4_0 + xp_3_0
 <= 35616.5025785279
 r_12: + xp_129_1 + xp_128_1 + xp_128_0 + xp_123_0 + xp_119_2 + xp_119_1
 + xp_117_0 + xp_112_2 + xp_112_1 + xp_111_1 + xp_108_1 + xp_101_0
 + xp_95_0 + xp_91_1 + xp_82_2 + xp_82_0 + xp_81_3 + xp_81_1 + xp_80_1
 + xp_79_1 + xp_78_2 + xp_78_0 + xp_73_0 + xp_63_1 + xp_60_1 + xp_50_1
 + xp_46_0 + xp_45_1 + xp_44_1 + xp_44_0 + xp_40_1 + xp_40_0 + xp_18_5
 + xp_18_3 + xp_18_0 + xp_17_1 + xp_15_0 + xp_14_0 + xp_13_1 + xp_13_0
 + xp_9_0 <= 35168.4937068616
 r_13: + xp_129_0 + xp_128_2 + xp_123_1 + xp_120_1 + xp_119_3 + xp_109_1
 + xp_100_0 + xp_96_1 + xp_95_2 + xp_91_0 + xp_90_0 + xp_82_3 + xp_81_4
 + xp_81_2 + xp_80_0 + xp_79_0 + xp_75_1 + xp_68_0 + xp_63_0 + xp_60_0
 + xp_53_2 + xp_53_1 + xp_45_3 + xp_45_2 + xp_40_2 + xp_34_1 + xp_31_0
 + xp_30_0 + xp_18_4 + xp_18_2 + xp_17_0 + xp_13_2 + xp_9_1
 <= 35616.5025785279
 r_14: + xp_131_3 + xp_131_2 + xp_131_1 + xp_131_0 + xp_126_4 + xp_126_3
 + xp_126_2 + xp_125_1 + xp_125_0 + xp_124_2 + xp_124_1 + xp_124_0
 + xp_115_1 + xp_115_0 + xp_106_2 + xp_106_1 + xp_99_2 + xp_99_1
 + xp_98_3 + xp_98_2 + xp_98_1 + xp_94_4 + xp_94_3 + xp_94_2 + xp_94_0
 + xp_92_2 + xp_92_1 + xp_86_1 + xp_86_0 + xp_85_2 + xp_85_1 + xp_77_2
 + xp_77_1 + xp_77_0 + xp_68_2 + xp_68_1 + xp_65_1 + xp_65_0 + xp_58_1
 + xp_56_0 + xp_51_0 + xp_48_1 + xp_41_1 + xp_41_0 + xp_38_1 + xp_38_0
 + xp_35_0 + xp_32_2 + xp_32_1 + xp_30_2 + xp_30_1 + xp_26_3 + xp_26_2
 + xp_26_1 + xp_24_4 + xp_24_3 + xp_24_2 + xp_24_1 + xp_20_0 + xp_19_1
 + xp_19_0 + xp_12_1 + xp_12_0 + xp_2_1 + xp_0_0 <= 34931.0473350727
 r_15: + xp_131_2 + xp_131_0 + xp_126_4 + xp_126_3 + xp_126_2 + xp_125_0
 + xp_124_1 + xp_124_0 + xp_120_1 + xp_116_0 + xp_115_0 + xp_109_1
 + xp_99_2 + xp_98_3 + xp_98_1 + xp_96_1 + xp_94_4 + xp_94_2 + xp_94_0
 + xp_92_2 + xp_92_1 + xp_90_0 + xp_89_0 + xp_86_0 + xp_85_2 + xp_85_1
 + xp_77_2 + xp_77_0 + xp_75_1 + xp_68_2 + xp_68_1 + xp_68_0 + xp_65_0
 + xp_58_1 + xp_51_0 + xp_48_1 + xp_42_2 + xp_42_0 + xp_38_1 + xp_38_0
 + xp_36_0 + xp_32_2 + xp_32_1 + xp_28_0 + xp_26_2 + xp_26_1 + xp_24_3
 + xp_24_2 + xp_24_1 + xp_19_1 + xp_12_0 + xp_11_1 + xp_0_0
 <= 35168.4937068616
 r_16: + xp_128_0 + xp_123_0 + xp_108_1 + xp_108_0 + xp_78_2 + xp_78_1
 + xp_78_0 + xp_73_0 + xp_67_0 + xp_57_0 + xp_46_0 + xp_44_1 + xp_44_0
 + xp_40_0 + xp_22_0 + xp_18_3 + xp_18_0 + xp_13_0 + xp_6_0
 <= 38895.0789229341
 r_17: + xp_131_3 + xp_129_1 + xp_128_1 + xp_126_0 + xp_124_2 + xp_119_2
 + xp_119_1 + xp_112_2 + xp_112_1 + xp_111_1 + xp_109_0 + xp_97_0
 + xp_95_0 + xp_91_1 + xp_90_2 + xp_81_3 + xp_81_1 + xp_80_1 + xp_79_1
 + xp_63_1 + xp_62_0 + xp_61_0 + xp_60_1 + xp_47_0 + xp_45_1 + xp_40_1
 + xp_22_1 + xp_18_5 + xp_17_1 + xp_13_1 + xp_9_0 + xp_1_0
 <= 34449.1913335368
 r_18: + xp_126_1 + xp_126_0 + xp_106_0 + xp_99_0 + xp_98_0 + xp_94_1
 + xp_92_0 + xp_85_0 + xp_68_0 + xp_58_0 + xp_48_0 + xp_32_0 + xp_30_0
 + xp_26_0 + xp_24_0 + xp_5_0 + xp_2_0 <= 35616.5025785279
 r_19: + xp_131_3 + xp_131_1 + xp_125_1 + xp_124_2 + xp_116_1 + xp_115_1
 + xp_110_0 + xp_108_1 + xp_106_2 + xp_106_1 + xp_99_1 + xp_98_2
 + xp_94_3 + xp_86_1 + xp_78_0 + xp_77_1 + xp_65_1 + xp_56_0 + xp_42_1
 + xp_28_1 + xp_26_3 + xp_24_4 + xp_19_0 + xp_14_0 + xp_12_1 + xp_11_0
 + xp_3_0 + xp_2_1 <= 35616.5025785279
 r_20: + xp_129_0 + xp_128_2 + xp_123_1 + xp_119_3 + xp_119_0 + xp_112_0
 + xp_111_0 + xp_108_2 + xp_108_0 + xp_107_0 + xp_95_2 + xp_95_1
 + xp_91_2 + xp_91_0 + xp_82_3 + xp_82_1 + xp_81_4 + xp_81_2 + xp_81_0
 + xp_80_0 + xp_79_0 + xp_78_3 + xp_78_1 + xp_69_0 + xp_64_0 + xp_63_0
 + xp_60_0 + xp_50_0 + xp_49_0 + xp_45_3 + xp_45_2 + xp_45_0 + xp_40_2
 + xp_18_4 + xp_18_2 + xp_18_1 + xp_17_0 + xp_14_1 + xp_13_2 + xp_10_0
 + xp_9_1 + xp_4_0 <= 34449.1913335368
 r_21: + xp_126_3 + xp_124_1 + xp_113_0 + xp_106_2 + xp_105_1 + xp_99_2
 + xp_99_1 + xp_98_3 + xp_94_2 + xp_92_2 + xp_86_1 + xp_86_0 + xp_85_2
 + xp_83_1 + xp_77_2 + xp_77_1 + xp_77_0 + xp_68_2 + xp_65_1 + xp_65_0
 + xp_48_1 + xp_41_1 + xp_38_1 + xp_38_0 + xp_30_2 + xp_26_2 + xp_24_3
 + xp_20_0 + xp_2_1 + xp_0_0 <= 34931.0473350727
 r_22: + xp_126_4 + xp_126_2 + xp_124_2 + xp_124_0 + xp_106_1 + xp_105_0
 + xp_98_2 + xp_98_1 + xp_94_4 + xp_94_3 + xp_94_0 + xp_92_1 + xp_85_1
 + xp_83_0 + xp_68_1 + xp_58_1 + xp_41_0 + xp_32_2 + xp_32_1 + xp_30_1
 + xp_26_3 + xp_26_1 + xp_24_4 + xp_24_2 + xp_24_1 <= 34931.0473350727
 r_23: + xp_128_2 + xp_128_1 + xp_128_0 + xp_119_3 + xp_119_2 + xp_119_1
 + xp_117_0 + xp_112_2 + xp_112_1 + xp_111_1 + xp_104_1 + xp_104_0
 + xp_100_0 + xp_95_2 + xp_95_0 + xp_91_1 + xp_91_0 + xp_84_0 + xp_82_3
 + xp_82_2 + xp_82_0 + xp_81_4 + xp_81_3 + xp_81_2 + xp_81_1 + xp_80_1
 + xp_80_0 + xp_79_1 + xp_79_0 + xp_78_2 + xp_73_0 + xp_60_1 + xp_60_0
 + xp_53_2 + xp_53_1 + xp_50_1 + xp_46_0 + xp_45_3 + xp_45_2 + xp_45_1
 + xp_44_1 + xp_44_0 + xp_40_2 + xp_40_1 + xp_40_0 + xp_34_1 + xp_21_0
 + xp_18_5 + xp_18_4 + xp_18_3 + xp_18_2 + xp_18_0 + xp_15_0 + xp_9_1
 + xp_9_0 + xp_3_2 + xp_3_1 <= 34931.0473350727
 r_24: + xp_128_0 + xp_126_4 + xp_126_1 + xp_103_0 + xp_94_4 + xp_94_3
 + xp_94_1 + xp_90_1 + xp_74_1 + xp_61_1 + xp_40_0 + xp_39_0 + xp_38_1
 + xp_22_0 + xp_18_3 + xp_18_0 + xp_13_0 + xp_12_1 + xp_1_1
 <= 38895.0789229341
 r_25: + xp_131_3 + xp_131_0 + xp_127_0 + xp_126_3 + xp_126_2 + xp_126_0
 + xp_94_2 + xp_94_0 + xp_90_2 + xp_90_0 + xp_89_0 + xp_77_0 + xp_74_0
 + xp_61_0 + xp_42_0 + xp_38_0 + xp_32_1 + xp_24_1 + xp_12_0 + xp_1_0
 <= 38895.0789229341
 r_26: + xp_128_2 + xp_128_1 + xp_123_1 + xp_121_0 + xp_112_2 + xp_112_1
 + xp_112_0 + xp_108_2 + xp_107_0 + xp_81_4 + xp_81_3 + xp_81_2
 + xp_81_1 + xp_81_0 + xp_79_1 + xp_79_0 + xp_78_3 + xp_67_1 + xp_64_0
 + xp_60_1 + xp_60_0 + xp_57_1 + xp_47_0 + xp_40_2 + xp_40_1 + xp_37_0
 + xp_29_0 + xp_25_0 + xp_22_1 + xp_18_5 + xp_18_4 + xp_18_2 + xp_18_1
 + xp_17_1 + xp_17_0 + xp_13_2 + xp_13_1 + xp_4_0 <= 34449.1913335368
 r_27: + xp_131_2 + xp_127_1 + xp_126_4 + xp_125_0 + xp_120_1 + xp_116_0
 + xp_115_0 + xp_108_0 + xp_99_2 + xp_98_3 + xp_98_1 + xp_96_1 + xp_94_4
 + xp_92_2 + xp_92_1 + xp_86_0 + xp_85_2 + xp_85_1 + xp_82_3 + xp_82_1
 + xp_78_1 + xp_77_2 + xp_75_1 + xp_74_1 + xp_72_0 + xp_67_0 + xp_65_0
 + xp_58_1 + xp_57_0 + xp_52_0 + xp_50_0 + xp_48_1 + xp_42_2 + xp_38_1
 + xp_32_2 + xp_28_0 + xp_26_2 + xp_26_1 + xp_24_3 + xp_24_2 + xp_23_0
 + xp_19_1 + xp_14_1 + xp_11_1 <= 34449.1913335368
 r_28: + xp_131_3 + xp_131_1 + xp_126_1 + xp_126_0 + xp_125_1 + xp_124_2
 + xp_120_0 + xp_116_1 + xp_115_1 + xp_109_0 + xp_99_1 + xp_99_0
 + xp_98_2 + xp_98_0 + xp_96_0 + xp_94_3 + xp_94_1 + xp_92_0 + xp_90_2
 + xp_90_1 + xp_86_1 + xp_85_0 + xp_77_1 + xp_75_0 + xp_65_1 + xp_58_0
 + xp_54_0 + xp_48_0 + xp_42_1 + xp_32_0 + xp_28_1 + xp_26_3 + xp_26_0
 + xp_24_4 + xp_24_0 + xp_19_0 + xp_12_1 + xp_11_0 <= 34449.1913335368
 r_29: + xp_129_1 + xp_129_0 + xp_95_2 + xp_95_1 + xp_95_0 + xp_93_0
 + xp_87_0 + xp_71_0 + xp_62_0 + xp_49_0 + xp_45_3 + xp_45_2 + xp_45_1
 + xp_45_0 + xp_10_0 + xp_9_1 + xp_9_0 + xp_1_1 + xp_1_0
 <= 34449.1913335368
 r_30: + xp_125_1 + xp_125_0 + xp_121_0 + xp_102_0 + xp_99_2 + xp_99_1
 + xp_99_0 + xp_96_1 + xp_96_0 + xp_92_2 + xp_92_1 + xp_92_0 + xp_57_1
 + xp_57_0 + xp_37_0 + xp_26_3 + xp_26_2 + xp_26_1 + xp_26_0 + xp_23_0
 + xp_11_1 + xp_11_0 <= 34449.1913335368

Bounds
 0 <= xp_0_0 <= 236.405058275828
 0 <= xp_1_0 <= 91.4583814838049
 0 <= xp_1_1 <= 91.4583814838049
 0 <= xp_2_0 <= 11.5230957176346
 0 <= xp_2_1 <= 103.707861458712
 0 <= xp_3_0 <= 36.5305246475385
 0 <= xp_3_1 <= 109.591573942616
 0 <= xp_3_2 <= 36.5305246475385
 0 <= xp_4_0 <= 790.372106844521
 0 <= xp_5_0 <= 1085.41618516195
 0 <= xp_6_0 <= 1795.29170931423
 0 <= xp_7_0 <= 639.482286129362
 0 <= xp_8_0 <= 1512.59616337042
 0 <= xp_9_0 <= 75.9005513916862
 0 <= xp_9_1 <= 32.5288077392941
 0 <= xp_10_0 <= 54.9410638227622
 0 <= xp_11_0 <= 20.8010037309737
 0 <= xp_11_1 <= 20.8010037309737
 0 <= xp_12_0 <= 1863.94822861294
 0 <= xp_12_1 <= 207.105358734771
 0 <= xp_13_0 <= 126.225773434147
 0 <= xp_13_1 <= 75.735464060488
 0 <= xp_13_2 <= 50.4903093736587
 0 <= xp_14_0 <= 66.1075709050087
 0 <= xp_14_1 <= 154.250998778354
 0 <= xp_15_0 <= 508.072770495592
 0 <= xp_16_0 <= 2645.95370951233
 0 <= xp_17_0 <= 119.047776273649
 0 <= xp_17_1 <= 178.571664410473
 0 <= xp_18_0 <= 143.876910885859
 0 <= xp_18_1 <= 71.9384554429293
 0 <= xp_18_2 <= 35.9692277214647
 0 <= xp_18_3 <= 35.9692277214647
 0 <= xp_18_4 <= 35.9692277214647
 0 <= xp_18_5 <= 35.9692277214647
 0 <= xp_19_0 <= 530.32654274111
 0 <= xp_19_1 <= 530.32654274111
 0 <= xp_20_0 <= 128.503978604682
 0 <= xp_21_0 <= 275.035493776208
 0 <= xp_22_0 <= 617.261531350084
 0 <= xp_22_1 <= 617.261531350084
 0 <= xp_23_0 <= 52.1015617261531
 0 <= xp_24_0 <= 136.533826394163
 0 <= xp_24_1 <= 68.2669131970813
 0 <= xp_24_2 <= 68.2669131970813
 0 <= xp_24_3 <= 34.1334565985406
 0 <= xp_24_4 <= 34.1334565985406
 0 <= xp_25_0 <= 579.98481196553
 0 <= xp_26_0 <= 6.15445570706904
 0 <= xp_26_1 <= 6.15445570706904
 0 <= xp_26_2 <= 1.53861392676726
 0 <= xp_26_3 <= 1.53861392676726
 0 <= xp_27_0 <= 237.038993627629
 0 <= xp_27_1 <= 101.588140126127
 0 <= xp_28_0 <= 468.253706210585
 0 <= xp_28_1 <= 200.680159804537
 0 <= xp_29_0 <= 2453.19774160531
 0 <= xp_30_0 <= 73.5100868359362
 0 <= xp_30_1 <= 91.8876085449203
 0 <= xp_30_2 <= 18.377521708984
 0 <= xp_31_0 <= 191.039059662561
 0 <= xp_32_0 <= 1804.97243041569
 0 <= xp_32_1 <= 225.621553801961
 0 <= xp_32_2 <= 225.621553801961
 0 <= xp_33_0 <= 8077.85518539307
 0 <= xp_34_0 <= 51.2034866444349
 0 <= xp_34_1 <= 460.831379799914
 0 <= xp_35_0 <= 261.630402482913
 0 <= xp_36_0 <= 319.675108132202
 0 <= xp_37_0 <= 365.701456070261
 0 <= xp_38_0 <= 302.030574173738
 0 <= xp_38_1 <= 33.5589526859709
 0 <= xp_39_0 <= 1577.0462574702
 0 <= xp_40_0 <= 425.56212236273
 0 <= xp_40_1 <= 255.337273417638
 0 <= xp_40_2 <= 170.224848945092
 0 <= xp_41_0 <= 64.0802984778948
 0 <= xp_41_1 <= 16.0200746194737
 0 <= xp_42_0 <= 227.622412256083
 0 <= xp_42_1 <= 91.0489649024334
 0 <= xp_42_2 <= 136.57344735365
 0 <= xp_43_0 <= 493.214910687754
 0 <= xp_44_0 <= 367.735331990623
 0 <= xp_44_1 <= 91.9338329976558
 0 <= xp_45_0 <= 17.0634265526463
 0 <= xp_45_1 <= 8.53171327632317
 0 <= xp_45_2 <= 12.7975699144848
 0 <= xp_45_3 <= 4.26585663816159
 0 <= xp_46_0 <= 1609.33733945257
 0 <= xp_47_0 <= 881.038069138574
 0 <= xp_48_0 <= 2622.05566744808
 0 <= xp_48_1 <= 291.339518605342
 0 <= xp_49_0 <= 88.2887047247994
 0 <= xp_50_0 <= 471.727143658996
 0 <= xp_50_1 <= 314.48476243933
 0 <= xp_51_0 <= 711.262257734341
 0 <= xp_52_0 <= 663.981246079176
 0 <= xp_53_0 <= 95.1893551688843
 0 <= xp_53_1 <= 76.1514841351075
 0 <= xp_53_2 <= 19.0378710337769
 0 <= xp_54_0 <= 3702.38055931588
 0 <= xp_55_0 <= 1188.03447023475
 0 <= xp_56_0 <= 96.0147918248753
 0 <= xp_57_0 <= 123.934361277116
 0 <= xp_57_1 <= 82.6229075180771
 0 <= xp_58_0 <= 3645.97351999207
 0 <= xp_58_1 <= 911.493379998019
 0 <= xp_59_0 <= 10669.9904249348
 0 <= xp_60_0 <= 475.649618648265
 0 <= xp_60_1 <= 203.849836563542
 0 <= xp_61_0 <= 1455.55518869482
 0 <= xp_61_1 <= 970.370125796546
 0 <= xp_62_0 <= 131.541585498729
 0 <= xp_63_0 <= 105.708719912834
 0 <= xp_63_1 <= 26.4271799782085
 0 <= xp_64_0 <= 996.797305774755
 0 <= xp_65_0 <= 471.291313104632
 0 <= xp_65_1 <= 52.3657014560703
 0 <= xp_66_0 <= 1684.08888301912
 0 <= xp_67_0 <= 243.351933172648
 0 <= xp_67_1 <= 162.234622115099
 0 <= xp_68_0 <= 443.081189949483
 0 <= xp_68_1 <= 738.468649915805
 0 <= xp_68_2 <= 295.387459966322
 0 <= xp_69_0 <= 1722.78535345198
 0 <= xp_70_0 <= 633.208967543831
 0 <= xp_71_0 <= 71.0535873477069
 0 <= xp_72_0 <= 600.521675966586
 0 <= xp_73_0 <= 925.281473899693
 0 <= xp_74_0 <= 860.032357116915
 0 <= xp_74_1 <= 95.5591507907683
 0 <= xp_75_0 <= 1591.51451117641
 0 <= xp_75_1 <= 176.834945686268
 0 <= xp_76_0 <= 1726.35123980586
 0 <= xp_77_0 <= 344.147654109024
 0 <= xp_77_1 <= 57.3579423515039
 0 <= xp_77_2 <= 172.073827054512
 0 <= xp_78_0 <= 2806.27992207878
 0 <= xp_78_1 <= 5612.55984415756
 0 <= xp_78_2 <= 14031.3996103939
 0 <= xp_78_3 <= 5612.55984415756
 0 <= xp_79_0 <= 640.98788258989
 0 <= xp_79_1 <= 427.325255059927
 0 <= xp_80_0 <= 135.662165285436
 0 <= xp_80_1 <= 90.441443523624
 0 <= xp_81_0 <= 78.489120744874
 0 <= xp_81_1 <= 52.3260804965827
 0 <= xp_81_2 <= 26.1630402482913
 0 <= xp_81_3 <= 52.3260804965827
 0 <= xp_81_4 <= 52.3260804965827
 0 <= xp_82_0 <= 110.212302307921
 0 <= xp_82_1 <= 22.0424604615842
 0 <= xp_82_2 <= 66.1273813847525
 0 <= xp_82_3 <= 22.0424604615842
 0 <= xp_83_0 <= 454.769372998316
 0 <= xp_83_1 <= 50.5299303331462
 0 <= xp_84_0 <= 892.594182322448
 0 <= xp_85_0 <= 122.96364776967
 0 <= xp_85_1 <= 245.92729553934
 0 <= xp_85_2 <= 40.98788258989
 0 <= xp_86_0 <= 154.759467758444
 0 <= xp_86_1 <= 17.1954964176049
 0 <= xp_87_0 <= 141.710965100538
 0 <= xp_88_0 <= 213.25981444184
 0 <= xp_88_1 <= 213.25981444184
 0 <= xp_89_0 <= 2227.62241225608
 0 <= xp_90_0 <= 13061.9605771453
 0 <= xp_90_1 <= 4353.98685904844
 0 <= xp_90_2 <= 4353.98685904844
 0 <= xp_91_0 <= 1091.92722950441
 0 <= xp_91_1 <= 1364.90903688051
 0 <= xp_91_2 <= 272.981807376102
 0 <= xp_92_0 <= 46.964043979265
 0 <= xp_92_1 <= 13.41829827979
 0 <= xp_92_2 <= 6.709149139895
 0 <= xp_93_0 <= 130.881236173936
 0 <= xp_94_0 <= 142.714696074223
 0 <= xp_94_1 <= 23.7857826790372
 0 <= xp_94_2 <= 23.7857826790372
 0 <= xp_94_3 <= 23.7857826790372
 0 <= xp_94_4 <= 23.7857826790372
 0 <= xp_95_0 <= 30.7722785353452
 0 <= xp_95_1 <= 12.3089114141381
 0 <= xp_95_2 <= 18.4633671212071
 0 <= xp_96_0 <= 81.0776900980619
 0 <= xp_96_1 <= 34.7475814705979
 0 <= xp_97_0 <= 529.336018753921
 0 <= xp_98_0 <= 43.0679829629874
 0 <= xp_98_1 <= 43.0679829629874
 0 <= xp_98_2 <= 28.7119886419916
 0 <= xp_98_3 <= 28.7119886419916
 0 <= xp_99_0 <= 1.64426981873411
 0 <= xp_99_1 <= 6.57707927493644
 0 <= xp_99_2 <= 8.22134909367055
 0 <= xp_100_0 <= 505.101198534024
 0 <= xp_101_0 <= 250.93274342127
 0 <= xp_102_0 <= 75.2798230263809
 0 <= xp_103_0 <= 1445.90088156635
 0 <= xp_104_0 <= 79.4796447320633
 0 <= xp_104_1 <= 52.9864298213755
 0 <= xp_105_0 <= 1164.85620893453
 0 <= xp_105_1 <= 291.214052233632
 0 <= xp_106_0 <= 16.6408029847789
 0 <= xp_106_1 <= 20.8010037309737
 0 <= xp_106_2 <= 4.16020074619474
 0 <= xp_107_0 <= 451.678938158286
 0 <= xp_108_0 <= 255.812724931489
 0 <= xp_108_1 <= 170.541816620992
 0 <= xp_108_2 <= 426.354541552481
 0 <= xp_109_0 <= 582.507346386238
 0 <= xp_109_1 <= 388.338230924159
 0 <= xp_110_0 <= 133.786773203024
 0 <= xp_111_0 <= 2643.74814276752
 0 <= xp_111_1 <= 293.749793640836
 0 <= xp_112_0 <= 3291.04236140918
 0 <= xp_112_1 <= 940.297817545482
 0 <= xp_112_2 <= 470.148908772741
 0 <= xp_113_0 <= 427.246013140952
 0 <= xp_114_0 <= 2408.16191765444
 0 <= xp_115_0 <= 133.126423878232
 0 <= xp_115_1 <= 88.7509492521544
 0 <= xp_116_0 <= 96.2393105953049
 0 <= xp_116_1 <= 64.1595403968699
 0 <= xp_117_0 <= 1951.66242942517
 0 <= xp_118_0 <= 3168.35606035593
 0 <= xp_119_0 <= 18.9190081553142
 0 <= xp_119_1 <= 25.2253442070855
 0 <= xp_119_2 <= 6.30633605177139
 0 <= xp_119_3 <= 12.6126721035428
 0 <= xp_120_0 <= 1525.31449136593
 0 <= xp_120_1 <= 653.7062105854
 0 <= xp_121_0 <= 75.8741374186945
 0 <= xp_122_0 <= 2284.6105589857
 0 <= xp_123_0 <= 464.456697593027
 0 <= xp_123_1 <= 51.6062997325585
 0 <= xp_124_0 <= 110.621718889292
 0 <= xp_124_1 <= 13.8277148611616
 0 <= xp_124_2 <= 13.8277148611616
 0 <= xp_125_0 <= 16.4426981873411
 0 <= xp_125_1 <= 10.9617987915607
 0 <= xp_126_0 <= 2548.88896226104
 0 <= xp_126_1 <= 10195.5558490441
 0 <= xp_126_2 <= 7646.66688678311
 0 <= xp_126_3 <= 2548.88896226104
 0 <= xp_126_4 <= 2548.88896226104
 0 <= xp_127_0 <= 231.729785056295
 0 <= xp_127_1 <= 347.594677584442
 0 <= xp_128_0 <= 163.159111169809
 0 <= xp_128_1 <= 122.369333377357
 0 <= xp_128_2 <= 122.369333377357
 0 <= xp_129_0 <= 19.6784098788259
 0 <= xp_129_1 <= 29.5176148182388
 0 <= xp_130_0 <= 405.388450490309
 0 <= xp_131_0 <= 308.435962624228
 0 <= xp_131_1 <= 231.326971968171
 0 <= xp_131_2 <= 154.217981312114
 0 <= xp_131_3 <= 77.108990656057

End
